==> MAXTIME              = 3600
==> OUTPUTLOG            = 1
==> GOMCUTS              = 0
FICO Xpress v8.5.9, solve started 23:38:14, Jun 8, 2019
Maximizing MILP Seating model
Original problem has:
       230 rows          300 cols         7440 elements       300 globals
Presolved problem has:
       103 rows          204 cols         2431 elements       198 globals
LP relaxation tightened
Will try to keep branch and bound tree memory usage below 7.2GB
 *** Heuristic solution found:    22.000000      Time: 0 ***
Starting concurrent solve with dual

 Concurrent-Solve,   0s
            Dual        
    objective   dual inf
 D  102.00000   .0000000
------- optimal --------
Concurrent statistics:
      Dual: 34 simplex iterations, 0.00s
Optimal solution found
 
   Its         Obj Value      S   Ninf  Nneg   Sum Dual Inf  Time
    34        102.000000      D      0     0        .000000     0
Dual solved problem
  34 simplex iterations in 0s

Final objective                         : 1.020000000000000e+02
  Max primal violation      (abs / rel) : 1.110e-16 / 9.869e-17
  Max dual violation        (abs / rel) :       0.0 /       0.0
  Max complementarity viol. (abs / rel) :       0.0 /       0.0
All values within tolerances

Starting root cutting & heuristics
 
 Its Type    BestSoln    BestBound   Sols    Add    Del     Gap     GInf   Time
   1  K     22.000000   102.000000      1    103      0   78.43%      29      0
   2  K     22.000000   102.000000      1    116     85   78.43%      42      0
   3  K     22.000000   102.000000      1     92    103   78.43%      45      0
   4  K     22.000000   102.000000      1    109     89   78.43%      57      0
   5  K     22.000000   102.000000      1     92    111   78.43%      51      1
   6  K     22.000000   102.000000      1    101     90   78.43%      59      1
   7  K     22.000000   102.000000      1     96     98   78.43%      63      1
   8  K     22.000000   102.000000      1     91     91   78.43%      61      1
   9  K     22.000000   102.000000      1     99     94   78.43%      62      1
  10  K     22.000000   102.000000      1     99    104   78.43%      58      1
b           30.000000   102.000000      2                 70.59%       0      1
  11  K     30.000000   102.000000      2     88    102   70.59%      52      1
  12  K     30.000000   102.000000      2    108     79   70.59%      65      1
  13  K     30.000000   102.000000      2    105     97   70.59%      75      1
  14  K     30.000000   102.000000      2     24    113   70.59%      40      1
b           37.000000   102.000000      3                 63.73%       0      1
  15  K     37.000000   102.000000      3    116     34   63.73%      58      1
  16  K     37.000000   102.000000      3      0     95   63.73%      39      1
Heuristic search started
Heuristic search stopped
 
Cuts in the matrix         : 54
Cut elements in the matrix : 1179
 
Starting tree search.
Deterministic mode with up to 4 running threads and up to 8 tasks.
 
    Node     BestSoln    BestBound   Sols Active  Depth     Gap     GInf   Time
       1    37.000000   102.000000      3      2      1   63.73%      39      1
       2    37.000000   102.000000      3      2      2   63.73%      48      1
       3    37.000000   102.000000      3      2      2   63.73%      48      1
       4    37.000000   102.000000      3      2      3   63.73%      50      1
       5    37.000000   102.000000      3      2      3   63.73%      45      1
       6    37.000000   102.000000      3      2      4   63.73%      41      1
       7    37.000000   102.000000      3      5      4   63.73%      26      1
       8    37.000000   102.000000      3      8      5   63.73%      42      1
       9    37.000000   102.000000      3      8      5   63.73%      28      1
      10    37.000000   102.000000      3      8      6   63.73%      21      1
      20    37.000000   102.000000      3     13      8   63.73%      30      1
      32    37.000000   102.000000      3     13     17   63.73%      40      1
      47    37.000000   102.000000      3     13     24   63.73%      16      1
a     52    38.000000   102.000000      4     13     29   62.75%       0      1
      68    38.000000   102.000000      4     13     43   62.75%      10      1
      86    38.000000   102.000000      4     50     15   62.75%      18      1
      96    38.000000   102.000000      4     50     16   62.75%      15      1
*    121    43.000000   102.000000      5     50     35   57.84%       0      1
     124    43.000000   102.000000      5     50     17   57.84%      22      1
B&B tree size: 0.9MB total
 
    Node     BestSoln    BestBound   Sols Active  Depth     Gap     GInf   Time
*    127    47.000000   102.000000      6     50     37   53.92%       0      1
     224    47.000000   102.000000      6     50     22   53.92%      36      1
     326    47.000000   102.000000      6     50     10   53.92%      34      1
     435    47.000000   102.000000      6    118     64   53.92%      40      2
     550    47.000000   102.000000      6    118     63   53.92%      26      2
     655    47.000000   102.000000      6    118     88   53.92%      10      2
     755    47.000000   102.000000      6    118     92   53.92%      18      2
     860    47.000000   102.000000      6    118     46   53.92%      40      2
     970    47.000000   102.000000      6    118     58   53.92%      35      2
    1080    47.000000   102.000000      6    118     87   53.92%      18      2
    1204    47.000000   102.000000      6    118     69   53.92%      22      2
    1328    47.000000   102.000000      6    423      1   53.92%       1      2
    1431    47.000000   102.000000      6    423     25   53.92%      30      2
    1550    47.000000   102.000000      6    423     35   53.92%      20      2
    1658    47.000000   102.000000      6    423     32   53.92%      24      2
    1768    47.000000   102.000000      6    423     55   53.92%      18      2
    1886    47.000000   102.000000      6    423     57   53.92%      35      2
a   1968    48.000000   102.000000      7    423     32   52.94%       0      2
    2009    48.000000   102.000000      7    423     58   52.94%      22      2
    2109    48.000000   102.000000      7    423     65   52.94%      33      2
B&B tree size: 9.1MB total
 
    Node     BestSoln    BestBound   Sols Active  Depth     Gap     GInf   Time
    2233    48.000000   102.000000      7    423     80   52.94%      16      3
    2345    48.000000   102.000000      7    423     44   52.94%      54      3
    2454    48.000000   102.000000      7    423     25   52.94%      22      3
    2560    48.000000   102.000000      7    583     63   52.94%      17      3
    2665    48.000000   102.000000      7    583     64   52.94%      24      3
    2774    48.000000   102.000000      7    743     64   52.94%      20      3
    2888    48.000000   102.000000      7    743     17   52.94%      32      3
    2992    48.000000   102.000000      7    743     25   52.94%      16      3
    3094    48.000000   102.000000      7    743     52   52.94%      29      3
    3209    48.000000   102.000000      7    999     68   52.94%      19      3
    3317    48.000000   102.000000      7   1221     37   52.94%      14      3
    3421    48.000000   102.000000      7   1221     65   52.94%      16      3
    3535    48.000000   102.000000      7   1472     25   52.94%      16      3
    3635    48.000000   102.000000      7   1472     73   52.94%      29      3
    3747    48.000000   102.000000      7   1472     79   52.94%      27      4
    3848    48.000000   101.877802      7   1712     64   52.88%      44      4
    3956    48.000000   101.877802      7   1712     67   52.88%      34      4
    4069    48.000000   101.877802      7   1712     88   52.88%      22      4
    4184    48.000000   101.877802      7   1712    105   52.88%      23      4
    4291    48.000000   101.877802      7   1712     70   52.88%      16      4
B&B tree size: 16MB total
 
    Node     BestSoln    BestBound   Sols Active  Depth     Gap     GInf   Time
    4391    48.000000   101.877802      7   1712     78   52.88%      27      4
    4502    48.000000   101.877802      7   1712     88   52.88%      15      4
a   4581    49.000000   101.877802      8   1712     90   51.90%       0      4
a   4587    53.000000   101.877802      9   1712     91   47.98%       0      4
    4615    53.000000   101.877802      9   1712     39   47.98%      12      4
    4717    53.000000   101.877802      9   1712     46   47.98%      26      4
    4834    53.000000   101.877802      9   1712     64   47.98%      21      4
    5068    53.000000   101.877802      9   1806      1   47.98%       1      4
    5178    53.000000   101.877802      9   1806     46   47.98%      22      4
    5294    53.000000   101.877802      9   1806     91   47.98%      12      4
    5396    53.000000   101.877802      9   1806     73   47.98%      15      4
    5516    53.000000   101.877802      9   1806     51   47.98%      26      4
    5628    53.000000   101.877802      9   1806     55   47.98%      23      4
    5738    53.000000   101.877802      9   1806     30   47.98%      23      4
    5840    53.000000   101.877802      9   1806     82   47.98%      23      5
    5949    53.000000   101.877802      9   1806     32   47.98%      27      5
    6052    53.000000   101.877802      9   1806     41   47.98%      13      5
    6153    53.000000   101.877802      9   1806     57   47.98%      17      5
    6266    53.000000   101.877802      9   1806     74   47.98%      39      5
    6391    53.000000   101.877802      9   1806     42   47.98%      22      5
B&B tree size: 22MB total
 
    Node     BestSoln    BestBound   Sols Active  Depth     Gap     GInf   Time
    6491    53.000000   101.877802      9   1806     58   47.98%      18      5
    6591    53.000000   101.877802      9   2160      1   47.98%       1      5
    6691    53.000000   101.877802      9   2160     48   47.98%      24      5
    6816    53.000000   101.877802      9   2406      1   47.98%       1      5
    6924    53.000000   101.877802      9   2406     32   47.98%      20      5
    7034    53.000000   101.877802      9   2406     75   47.98%      22      5
    7134    53.000000   101.877802      9   2406     44   47.98%      39      5
    7235    53.000000   101.877802      9   2406     50   47.98%      36      5
    7335    53.000000   101.877802      9   2406     49   47.98%      28      5
    7453    53.000000   101.877802      9   2406     66   47.98%      34      5
    7561    53.000000   101.877802      9   2406     53   47.98%      27      5
    7674    53.000000   101.877802      9   2406     64   47.98%      29      5
    7781    53.000000   101.877802      9   2693     58   47.98%      32      5
    7906    53.000000   101.877802      9   2693    104   47.98%      19      5
    8049    53.000000   101.877802      9   3187      1   47.98%       1      5
    8152    53.000000   101.877802      9   3187     27   47.98%      24      6
    8269    53.000000   101.877802      9   3303     70   47.98%      29      6
    8377    53.000000   101.877802      9   3303     53   47.98%      25      6
    8490    53.000000   101.877802      9   3303     67   47.98%      19      6
    8603    53.000000   101.877802      9   3571     28   47.98%      43      6
B&B tree size: 26MB total
 
    Node     BestSoln    BestBound   Sols Active  Depth     Gap     GInf   Time
    8715    53.000000   101.877802      9   3571     32   47.98%      28      6
    8823    53.000000   101.877802      9   3571     35   47.98%      24      6
    8952    53.000000   101.877802      9   3571     30   47.98%      14      6
    9057    53.000000   101.877802      9   3571     20   47.98%      32      6
    9162    53.000000   101.877802      9   3571     59   47.98%      28      6
    9277    53.000000   101.877802      9   3571     45   47.98%      33      6
    9387    53.000000   100.990991      9   3927     42   47.52%      22      6
    9498    53.000000   100.990991      9   3927     23   47.52%      33      6
    9622    53.000000   100.990991      9   3927     38   47.52%      22      6
    9730    53.000000   100.990991      9   3927     67   47.52%      46      6
    9830    53.000000   100.990991      9   3927     41   47.52%      23      7
    9933    53.000000   100.990991      9   3927     63   47.52%      12      7
   10036    53.000000   100.990991      9   3927     93   47.52%      22      7
   11043    53.000000    98.734127      9   4792     56   46.32%      20      7
   12067    53.000000    98.734127      9   5354     48   46.32%      20      8
   13079    53.000000    98.000000      9   5790     53   45.92%      39      8
   14083    53.000000    98.000000      9   6270     62   45.92%      23      9
a  14303    55.000000    98.000000     10   6270     59   43.88%       0      9
a  14309    60.000000    98.000000     11   6270     60   38.78%       0      9
   15552    60.000000    98.000000     11   5440      1   38.78%       1      9
B&B tree size: 37MB total
 
    Node     BestSoln    BestBound   Sols Active  Depth     Gap     GInf   Time
   16560    60.000000    97.000000     11   6021     65   38.14%      44      9
   17571    60.000000    95.000000     11   6408     58   36.84%      38     10
   18571    60.000000    92.000000     11   6770     46   34.78%      33     11
   19582    60.000000    91.850096     11   6944     32   34.68%      34     11
   20588    60.000000    90.421053     11   7553     73   33.64%      22     12
   21599    60.000000    90.421053     11   7573     49   33.64%      34     12
   22619    60.000000    89.000000     11   8086     89   32.58%      34     13
   23626    60.000000    88.766735     11   8241     36   32.41%      16     13
   24627    60.000000    88.766735     11   8332     55   32.41%      11     14
   25642    60.000000    88.000000     11   8948     28   31.82%      29     15
   26648    60.000000    88.000000     11   9168     36   31.82%      10     15
   27658    60.000000    88.000000     11   9336     64   31.82%      26     16
   28662    60.000000    88.000000     11   9845     25   31.82%      20     16
   29674    60.000000    88.000000     11  10056     61   31.82%      31     17
   30684    60.000000    88.000000     11  10178     52   31.82%      17     17
   31687    60.000000    88.000000     11  10487     39   31.82%      25     18
   32691    60.000000    88.000000     11  10765     44   31.82%      31     18
   33710    60.000000    88.000000     11  11211     46   31.82%      29     19
   34734    60.000000    88.000000     11  11374     43   31.82%      28     19
   35738    60.000000    85.000000     11  11574     53   29.41%      31     20
B&B tree size: 69MB total
 
    Node     BestSoln    BestBound   Sols Active  Depth     Gap     GInf   Time
   36740    60.000000    85.000000     11  11668     57   29.41%      42     20
   37742    60.000000    85.000000     11  12060     88   29.41%      15     21
   38742    60.000000    85.000000     11  12209     69   29.41%      23     21
   39751    60.000000    85.000000     11  12475     78   29.41%      39     22
   40778    60.000000    85.000000     11  12613     57   29.41%      18     22
   41784    60.000000    84.962372     11  12861     30   29.38%      26     23
   42803    60.000000    84.374269     11  13152     49   28.89%      23     23
   43814    60.000000    84.000000     11  13443     30   28.57%      18     24
   44827    60.000000    83.589878     11  13702     56   28.22%      28     24
   45831    60.000000    83.380173     11  13843     16   28.04%      14     25
   46844    60.000000    83.024497     11  13904     52   27.73%      24     26
   47850    60.000000    83.000000     11  14234     70   27.71%      28     26
   48861    60.000000    83.000000     11  14583     51   27.71%      23     27
   49870    60.000000    83.000000     11  14820     24   27.71%      39     27
   50874    60.000000    83.000000     11  14869     49   27.71%      30     28
   51883    60.000000    82.415301     11  14955     62   27.20%      30     28
   52888    60.000000    82.000000     11  15177     21   26.83%      37     29
   53896    60.000000    82.000000     11  15272     40   26.83%      23     29
   54910    60.000000    82.000000     11  15530     29   26.83%      16     30
   55913    60.000000    82.000000     11  15732     50   26.83%      24     31
B&B tree size: 95MB total
 
    Node     BestSoln    BestBound   Sols Active  Depth     Gap     GInf   Time
   56915    60.000000    82.000000     11  15962     25   26.83%      20     31
   57924    60.000000    82.000000     11  16099     91   26.83%      10     32
   58934    60.000000    82.000000     11  16274     46   26.83%      18     33
   59938    60.000000    82.000000     11  16493     84   26.83%      32     33
   60949    60.000000    82.000000     11  16624     39   26.83%      24     33
   61961    60.000000    82.000000     11  16683     35   26.83%      27     34
   62969    60.000000    82.000000     11  16850     88   26.83%      19     34
   63975    60.000000    81.947368     11  16999     35   26.78%      22     35
   64984    60.000000    81.947368     11  17143     49   26.78%      27     35
   65990    60.000000    81.423977     11  17315     18   26.31%      39     36
   67007    60.000000    81.274854     11  17381     54   26.18%      29     36
   68018    60.000000    81.000000     11  17476     55   25.93%      14     37
   69018    60.000000    81.000000     11  17621     71   25.93%      27     38
   70026    60.000000    81.000000     11  17838     33   25.93%      36     39
   71033    60.000000    81.000000     11  18045     60   25.93%      21     39
   72038    60.000000    81.000000     11  18111     39   25.93%       9     40
   73038    60.000000    81.000000     11  18230     45   25.93%      30     40
   74057    60.000000    80.968750     11  18340     62   25.90%      35     41
   75058    60.000000    80.659986     11  18663     77   25.61%      29     41
   76061    60.000000    80.482993     11  18810     63   25.45%      28     42
B&B tree size: 113MB total
 
    Node     BestSoln    BestBound   Sols Active  Depth     Gap     GInf   Time
   77072    60.000000    80.191695     11  18913     30   25.18%      19     43
   78082    60.000000    80.000000     11  18974     51   25.00%      30     43
   79084    60.000000    80.000000     11  19130      1   25.00%       1     44
   80099    60.000000    80.000000     11  19233     43   25.00%      17     44
   81107    60.000000    80.000000     11  19314     62   25.00%      17     45
   82119    60.000000    79.985849     11  19351     50   24.99%      29     45
   83141    60.000000    79.762396     11  19485     64   24.78%      16     46
   84145    60.000000    79.580117     11  19508     33   24.60%      41     46
   85148    60.000000    79.295322     11  19655     40   24.33%      30     47
   86151    60.000000    79.021333     11  19769     61   24.07%      30     47
   87153    60.000000    79.000000     11  19796     87   24.05%      25     48
   88163    60.000000    79.000000     11  19923     36   24.05%      20     48
   89179    60.000000    78.944444     11  19889     66   24.00%      13     49
   90183    60.000000    78.801762     11  19934     21   23.86%      18     49
   91196    60.000000    78.578028     11  20008     51   23.64%      32     49
   92211    60.000000    78.439196     11  20063     51   23.51%      16     50
   93218    60.000000    78.269456     11  20231     62   23.34%      12     50
   94224    60.000000    78.000000     11  20305     60   23.08%      22     51
User interrupt (9) triggered.
 *** Search unfinished ***    Time:    52 Nodes:      95123
Number of integer feasible solutions found is 11
Best integer solution found is    60.000000
Best bound is    78.000000
